c 3 __LINUXTHREADS_OLD__
c 1 __UCLIBC_HAS_THREADS_NATIVE__
c 2 __UCLIBC_HAS_XLOCALE__
c 6 __UCLIBC_HAS_LOCALE__
c 4 __UCLIBC_HAS_GLIBC_CUSTOM_STREAMS__
c 7 __LINUXTHREADS_NEW__
c 5 __UCLIBC_HAS_THREADS__
p cnf 7 1
1 -3 -2 -5 -4 6 7 1
